unsat
(define-fun inv ((s (_ BitVec 4)) (t (_ BitVec 4))) (_ BitVec 4) (bvand t #b1111))
0.33user 0.01system 0:00.35elapsed 99%CPU (0avgtext+0avgdata 33212maxresident)k
8inputs+8outputs (0major+2893minor)pagefaults 0swaps
